language ESSENCE' 1.0

letting fixed be 
[
    [4,2,0,9,0,0,3,8,6],
    [0,6,0,2,0,0,7,9,4],
    [8,0,9,0,6,0,2,5,1],
    [7,0,0,0,0,3,0,2,5],
    [9,0,0,1,0,2,6,0,3],
    [2,0,0,5,0,0,0,0,8],
    [0,0,4,0,2,0,5,6,7],
    [6,8,2,7,0,0,4,3,9],
    [0,0,0,0,0,0,8,1,2]
]